8,2,8,2
7,3,7,3
6,3,1,6,3,1
3,3,2,2,3,3,2,2
5,4,1,5,4,1
4,4,2,4,4,2
4,1,4,1,4,1,4,1
2,2,2,3,1,2,2,2,3,1
9,1,9,1
6,4,6,4
5,5,5,5
3,3,3,1,3,3,3,1
3,3,2,1,1,3,3,2,1,1
4,2,3,1,4,2,3,1
8,1,1,8,1,1
6,2,2,6,2,2
8,2,8,2
7,3,7,3
6,3,1,6,3,1
3,3,2,2,3,3,2,2
5,4,1,5,4,1
4,4,2,4,4,2
4,1,4,1,4,1,4,1
2,2,2,3,1,2,2,2,3,1
9,1,9,1
6,4,6,4
5,5,5,5
3,3,3,1,3,3,3,1
3,3,2,1,1,3,3,2,1,1
4,2,3,1,4,2,3,1
8,1,1,8,1,1
6,2,2,6,2,2
8,2,8,2
7,3,7,3
6,3,1,6,3,1
3,3,2,2,3,3,2,2
5,4,1,5,4,1
4,4,2,4,4,2
4,1,4,1,4,1,4,1
2,2,2,3,1,2,2,2,3,1
9,1,9,1
6,4,6,4
5,5,5,5
3,3,3,1,3,3,3,1
3,3,2,1,1,3,3,2,1,1
4,2,3,1,4,2,3,1
8,1,1,8,1,1
6,2,2,6,2,2
8,2,8,2
7,3,7,3
6,3,1,6,3,1
3,3,2,2,3,3,2,2
5,4,1,5,4,1
4,4,2,4,4,2
4,1,4,1,4,1,4,1
2,2,2,3,1,2,2,2,3,1
9,1,9,1
6,4,6,4
5,5,5,5
3,3,3,1,3,3,3,1
3,3,2,1,1,3,3,2,1,1
4,2,3,1,4,2,3,1
8,1,1,8,1,1
6,2,2,6,2,2
8,2,8,2
7,3,7,3
6,3,1,6,3,1
3,3,2,2,3,3,2,2
5,4,1,5,4,1
4,4,2,4,4,2
4,1,4,1,4,1,4,1
2,2,2,3,1,2,2,2,3,1
9,1,9,1
6,4,6,4
5,5,5,5
3,3,3,1,3,3,3,1
3,3,2,1,1,3,3,2,1,1
4,2,3,1,4,2,3,1
8,1,1,8,1,1
6,2,2,6,2,2
8,2,8,2
7,3,7,3
6,3,1,6,3,1
3,3,2,2,3,3,2,2
5,4,1,5,4,1
4,4,2,4,4,2
4,1,4,1,4,1,4,1
2,2,2,3,1,2,2,2,3,1
9,1,9,1
6,4,6,4
5,5,5,5
3,3,3,1,3,3,3,1
3,3,2,1,1,3,3,2,1,1
4,2,3,1,4,2,3,1
8,1,1,8,1,1
6,2,2,6,2,2
8,2,8,2
7,3,7,3
6,3,1,6,3,1
3,3,2,2,3,3,2,2
5,4,1,5,4,1
4,4,2,4,4,2
4,1,4,1,4,1,4,1
2,2,2,3,1,2,2,2,3,1
9,1,9,1
6,4,6,4
5,5,5,5
3,3,3,1,3,3,3,1
3,3,2,1,1,3,3,2,1,1
4,2,3,1,4,2,3,1
8,1,1,8,1,1
6,2,2,6,2,2
8,2,8,2
7,3,7,3
6,3,1,6,3,1
3,3,2,2,3,3,2,2
5,4,1,5,4,1
4,4,2,4,4,2
4,1,4,1,4,1,4,1
2,2,2,3,1,2,2,2,3,1
9,1,9,1
6,4,6,4
5,5,5,5
3,3,3,1,3,3,3,1
3,3,2,1,1,3,3,2,1,1
4,2,3,1,4,2,3,1
8,1,1,8,1,1
6,2,2,6,2,2
8,2,8,2
7,3,7,3
6,3,1,6,3,1
3,3,2,2,3,3,2,2
5,4,1,5,4,1
4,4,2,4,4,2
4,1,4,1,4,1,4,1
2,2,2,3,1,2,2,2,3,1
9,1,9,1
6,4,6,4
5,5,5,5
3,3,3,1,3,3,3,1
3,3,2,1,1,3,3,2,1,1
4,2,3,1,4,2,3,1
8,1,1,8,1,1
6,2,2,6,2,2
8,2,8,2
7,3,7,3
6,3,1,6,3,1
3,3,2,2,3,3,2,2
5,4,1,5,4,1
4,4,2,4,4,2
4,1,4,1,4,1,4,1
2,2,2,3,1,2,2,2,3,1
9,1,9,1
6,4,6,4
5,5,5,5
3,3,3,1,3,3,3,1
3,3,2,1,1,3,3,2,1,1
4,2,3,1,4,2,3,1
8,1,1,8,1,1
6,2,2,6,2,2
8,2,8,2
7,3,7,3
6,3,1,6,3,1
3,3,2,2,3,3,2,2
5,4,1,5,4,1
4,4,2,4,4,2
4,1,4,1,4,1,4,1
2,2,2,3,1,2,2,2,3,1
9,1,9,1
6,4,6,4
5,5,5,5
3,3,3,1,3,3,3,1
3,3,2,1,1,3,3,2,1,1
4,2,3,1,4,2,3,1
8,1,1,8,1,1
6,2,2,6,2,2
8,2,8,2
7,3,7,3
6,3,1,6,3,1
3,3,2,2,3,3,2,2
5,4,1,5,4,1
4,4,2,4,4,2
4,1,4,1,4,1,4,1
2,2,2,3,1,2,2,2,3,1
9,1,9,1
6,4,6,4
5,5,5,5
3,3,3,1,3,3,3,1
3,3,2,1,1,3,3,2,1,1
4,2,3,1,4,2,3,1
8,1,1,8,1,1
6,2,2,6,2,2
8,2,8,2
7,3,7,3
6,3,1,6,3,1
3,3,2,2,3,3,2,2
5,4,1,5,4,1
4,4,2,4,4,2
4,1,4,1,4,1,4,1
2,2,2,3,1,2,2,2,3,1
9,1,9,1
6,4,6,4
5,5,5,5
3,3,3,1,3,3,3,1
3,3,2,1,1,3,3,2,1,1
4,2,3,1,4,2,3,1
8,1,1,8,1,1
6,2,2,6,2,2
8,2,8,2
7,3,7,3
6,3,1,6,3,1
3,3,2,2,3,3,2,2
5,4,1,5,4,1
4,4,2,4,4,2
4,1,4,1,4,1,4,1
2,2,2,3,1,2,2,2,3,1
9,1,9,1
6,4,6,4
5,5,5,5
3,3,3,1,3,3,3,1
3,3,2,1,1,3,3,2,1,1
4,2,3,1,4,2,3,1
8,1,1,8,1,1
6,2,2,6,2,2
8,2,8,2
7,3,7,3
6,3,1,6,3,1
3,3,2,2,3,3,2,2
5,4,1,5,4,1
4,4,2,4,4,2
4,1,4,1,4,1,4,1
2,2,2,3,1,2,2,2,3,1
9,1,9,1
6,4,6,4
5,5,5,5
3,3,3,1,3,3,3,1
3,3,2,1,1,3,3,2,1,1
4,2,3,1,4,2,3,1
8,1,1,8,1,1
6,2,2,6,2,2
8,2,8,2
7,3,7,3
6,3,1,6,3,1
3,3,2,2,3,3,2,2
5,4,1,5,4,1
4,4,2,4,4,2
4,1,4,1,4,1,4,1
2,2,2,3,1,2,2,2,3,1
9,1,9,1
6,4,6,4
5,5,5,5
3,3,3,1,3,3,3,1
3,3,2,1,1,3,3,2,1,1
4,2,3,1,4,2,3,1
8,1,1,8,1,1
6,2,2,6,2,2